1094.32 0
0 40 43 45 48 51 50 49 47 46 44 41 42 39 38 37 29 0
0 52 54 57 59 65 61 62 64 66 63 60 56 58 55 53 100 0
0 67 69 70 71 74 72 75 78 80 79 77 68 76 73 103 0
0 1 17 16 19 25 22 24 27 33 30 31 34 36 35 32 28 26 23 20 21 0
0 88 117 6 7 9 8 12 13 14 15 11 10 4 3 5 2 81 82 0
0 120 105 106 107 104 116 98 110 115 109 108 118 114 18 83 113 84 112 85 86 111 0
0 95 102 101 99 96 93 94 97 90 91 89 92 87 119 0
